============================[ Problem Statistics ]=============================|                                                                             ||  Number of variables:          4242                                         ||  Number of clauses:           10367                                         ||  Parse time:                   0.75 s                                       ||                                                                             |============================[ Search Statistics ]==============================| Conflicts |          ORIGINAL         |          LEARNT          | Progress ||           |    Vars  Clauses Literals |    Limit  Clauses Lit/Cl |          |===============================================================================|       100 |    1591     6572  1203453 |     2409      100     53 | 62.501 % ||       250 |    1591     6572  1203453 |     2650      250     75 | 62.495 % |===============================================================================restarts              : 4conflicts             : 408            (359 /sec)decisions             : 769            (0.00 % random) (676 /sec)propagations          : 13661          (12015 /sec)conflict literals     : 33972          (94.53 % deleted)CPU time              : 1.137 sSATISFIABLE